projet_m2_wvcp/projet_m2_wvcp/original_wvcp_dzn/zeroin.i.2.clq.dzn
cliques=[{0,14,6,144,42,47,32,3,50,12,2,53,15,4,11,9,10,8,5,35,40,13,7,44,124,60,1},{0,14,6,144,42,47,32,3,50,12,2,53,15,4,11,9,10,8,5,35,40,13,7,44,124,60,1},{0,14,6,144,42,47,32,3,50,12,2,53,15,4,11,9,10,8,5,35,40,13,7,44,124,60,1},{0,14,6,144,42,47,32,3,50,12,2,53,15,4,11,9,10,8,5,35,40,13,7,44,124,60,1},{0,14,6,144,42,47,32,3,50,12,2,53,15,4,11,9,10,8,5,35,40,13,7,44,124,60,1},{0,14,6,144,42,47,32,3,50,12,2,53,15,4,11,9,10,8,5,35,40,13,7,44,124,60,1},{0,14,6,144,42,47,32,3,50,12,2,53,15,4,11,9,10,8,5,35,40,13,7,44,124,60,1},{0,14,6,144,42,47,32,3,50,12,2,53,15,4,11,9,10,8,5,35,40,13,7,44,124,60,1},{0,14,6,144,42,47,32,3,50,12,2,53,15,4,11,9,10,8,5,35,40,13,7,44,124,60,1},{0,14,6,144,42,47,32,3,50,12,2,53,15,4,11,9,10,8,5,35,40,13,7,44,124,60,1},{0,14,6,144,42,47,32,3,50,12,2,53,15,4,11,9,10,8,5,35,40,13,7,44,124,60,1},{0,14,6,144,42,47,32,3,50,12,2,53,15,4,11,9,10,8,5,35,40,13,7,44,124,60,1},{0,14,6,144,42,47,32,3,50,12,2,53,15,4,11,9,10,8,5,35,40,13,7,44,124,60,1},{0,14,6,144,42,47,32,3,50,12,2,53,15,4,11,9,10,8,5,35,40,13,7,44,124,60,1},{0,14,6,144,42,47,32,3,50,12,2,53,15,4,11,9,10,8,5,35,40,13,7,44,124,60,1},{0,14,6,144,42,47,32,3,50,12,2,53,15,4,11,9,10,8,5,35,40,13,7,44,124,60,1},{16,144,42,47,32,50,53,35,40,26,44,124,60},{16,19,22,20,25,24,82,27,28,31,18,78,26,23,17,21,30,66,68,67,83,80,29},{16,19,22,20,25,24,82,27,28,31,18,78,26,23,17,21,30,66,68,67,83,80,29},{16,19,22,20,25,24,82,27,28,31,18,78,26,23,17,21,30,66,68,67,83,80,29},{16,19,22,20,25,24,82,27,28,31,18,78,26,23,17,21,30,66,68,67,83,80,29},{16,19,22,20,25,24,82,27,28,31,18,78,26,23,17,21,30,66,68,67,83,80,29},{16,19,22,20,25,24,82,27,28,31,18,78,26,23,17,21,30,66,68,67,83,80,29},{16,19,22,20,25,24,82,27,28,31,18,78,26,23,17,21,30,66,68,67,83,80,29},{16,19,22,20,25,24,82,27,28,31,18,78,26,23,17,21,30,66,68,67,83,80,29},{16,19,22,20,25,24,82,27,28,31,18,78,26,23,17,21,30,66,68,67,83,80,29},{16,144,42,47,32,50,53,35,40,26,44,124,60},{16,19,22,20,25,24,82,27,28,31,18,78,26,23,17,30,21,66,68,67,83,80,29},{16,19,22,20,25,24,82,28,27,31,18,78,26,23,17,30,21,66,68,67,83,80,29},{16,19,22,20,25,24,82,27,28,31,18,78,26,23,17,30,21,66,68,67,83,80,29},{16,19,22,20,25,24,82,27,28,31,18,78,26,23,17,30,21,66,68,67,83,80,29},{16,19,22,20,25,24,82,31,27,28,18,78,26,23,17,30,21,66,68,67,83,80,29},{0,14,6,144,42,47,32,3,50,12,2,53,15,4,11,9,10,8,5,35,40,13,7,44,124,60,1},{33},{34},{0,14,6,144,42,47,32,3,50,12,2,53,15,4,11,9,10,8,5,35,40,13,7,44,124,60,1},{36},{37},{38},{39},{0,14,6,144,42,47,32,3,50,12,2,53,15,4,11,9,10,8,5,35,40,13,7,44,124,60,1},{41},{0,14,6,144,42,47,32,3,50,12,2,53,15,4,11,9,10,8,5,35,40,13,7,44,124,60,1},{43},{0,14,6,144,42,47,32,3,50,12,2,53,15,4,11,9,10,8,5,35,40,13,7,44,124,60,1},{45},{0,14,6,47,32,3,50,12,2,46,15,4,98,11,9,10,8,5,35,13,7,1},{0,14,6,144,42,47,32,3,50,12,2,53,15,4,11,9,10,8,5,35,40,13,7,44,124,60,1},{48},{49},{0,14,6,144,42,47,32,3,50,12,2,53,15,4,11,9,10,8,5,35,40,13,7,44,124,60,1},{51},{52},{0,14,6,144,42,47,32,3,50,12,2,53,15,4,11,9,10,8,5,35,40,13,7,44,124,60,1},{54},{0,14,6,42,3,50,55,199,12,204,2,53,15,4,11,9,10,8,5,35,40,13,7,44,124,60,192,1},{0,14,6,175,42,3,50,174,12,171,2,53,15,4,11,9,10,8,5,35,40,13,7,44,124,60,56,1},{57},{0,14,6,42,47,32,3,50,120,12,59,2,53,15,4,11,9,119,10,8,5,35,40,13,58,7,44,1},{0,14,6,42,47,32,3,50,120,12,59,2,53,15,4,11,9,119,10,8,5,35,40,13,58,7,44,1},{0,14,6,144,42,47,32,3,50,12,2,53,15,4,11,9,10,8,5,35,40,13,7,44,124,60,1},{16,19,22,20,25,24,27,28,31,18,26,23,61,17,21,30,29},{16,19,22,20,25,24,27,28,31,18,26,23,17,21,30,62,29},{63,16,19,22,20,25,24,27,28,31,18,26,23,17,21,30,29},{16,19,22,20,25,24,27,28,31,18,26,23,17,21,30,64,29},{16,19,22,20,25,24,27,28,31,18,26,23,17,65,21,30,29},{16,19,22,20,25,24,82,27,28,31,18,78,26,23,17,21,30,66,68,67,83,80,29},{16,19,22,20,25,24,82,27,28,31,18,78,26,23,17,21,30,66,68,67,83,80,29},{16,19,22,20,25,24,82,27,28,31,18,78,26,23,17,21,30,66,68,67,83,80,29},{0,14,6,3,69,12,2,15,4,11,9,10,8,5,13,7,1},{0,14,6,3,12,2,70,15,4,11,9,10,8,5,13,7,1},{0,14,6,3,71,12,2,15,4,11,9,10,8,5,13,7,1},{0,14,6,3,12,72,2,15,4,11,9,10,8,5,13,7,1},{0,14,6,3,12,2,15,4,11,9,10,8,5,13,73,7,1},{0,14,6,3,12,2,74,15,4,11,9,10,8,5,13,7,1},{0,14,6,3,12,2,75,15,4,11,9,10,8,5,13,7,1},{0,14,6,3,12,2,15,4,11,9,10,8,5,13,7,76,1},{0,14,6,3,12,2,15,4,11,9,10,8,5,13,7,77,1},{16,19,22,20,25,24,82,27,28,31,18,78,26,23,17,21,30,66,68,67,83,80,29},{0,14,6,3,12,2,15,4,11,9,10,8,5,13,7,1,79},{16,19,22,20,25,24,82,27,28,31,18,78,26,23,17,21,30,66,68,67,83,80,29},{0,14,6,3,12,2,15,4,11,9,10,8,5,13,81,7,1},{16,19,22,20,25,24,82,27,28,31,18,78,26,23,17,21,30,66,68,67,83,80,29},{16,19,22,20,25,24,82,27,28,31,18,78,26,23,17,21,30,66,68,67,83,80,29},{0,14,6,84,3,12,2,15,4,11,9,10,8,5,13,7,1},{85},{86},{0,14,6,3,87,12,2,46,15,4,11,9,10,8,5,13,7,1},{88},{0,14,6,3,12,2,46,15,4,11,9,10,8,5,13,90,7,1,89},{0,14,6,3,12,2,46,15,4,11,9,10,8,5,13,90,7,1,89},{0,14,6,3,12,91,2,46,15,4,11,9,10,8,5,13,7,1},{92},{93},{94},{95},{96},{97},{0,14,6,47,32,3,50,12,2,46,15,4,98,11,9,10,8,5,35,13,7,1},{99},{0,14,6,47,32,3,50,12,2,15,4,11,9,10,8,5,35,13,7,100,1},{101},{102},{103},{104},{0,14,6,42,47,32,3,50,12,2,53,15,4,11,9,10,8,5,35,40,13,7,44,105,1},{0,14,6,42,47,32,3,50,12,2,53,15,4,11,9,10,8,5,35,40,13,107,106,7,44,1},{0,14,6,42,47,32,3,50,12,2,53,15,4,11,9,10,8,5,35,40,13,107,106,7,44,1},{0,14,6,42,47,32,3,50,12,2,53,15,4,11,9,10,8,5,35,40,13,7,108,44,1},{0,116,14,6,42,47,32,3,50,109,12,2,53,15,4,11,9,10,8,5,35,40,13,7,44,1},{110},{111},{112},{113},{114},{115},{0,116,14,6,42,47,32,3,50,109,12,2,53,15,4,11,9,10,8,5,35,40,13,7,44,1},{117},{118},{0,14,6,42,47,32,3,50,120,12,59,2,53,15,4,11,9,119,10,8,5,35,40,13,58,7,44,1},{0,14,6,42,47,32,3,50,120,12,59,2,53,15,4,11,9,119,10,8,5,35,40,13,58,7,44,1},{0,14,6,42,47,32,3,50,12,59,121,2,53,15,4,11,9,10,8,5,35,40,13,58,7,44,1},{122},{0,14,6,42,47,32,3,50,12,59,2,53,15,4,11,9,10,8,5,35,40,13,7,44,60,123,1},{0,14,6,144,42,47,32,3,50,12,2,53,15,4,11,9,10,8,5,35,40,13,7,44,124,60,1},{0,14,6,42,47,32,3,50,12,2,53,15,4,11,9,10,8,5,35,40,13,7,125,44,124,60,1},{0,14,6,42,47,32,3,50,12,2,53,15,4,11,9,10,8,5,35,40,13,126,7,44,124,60,1},{0,14,6,127,3,12,2,15,4,11,9,10,8,5,35,13,7,1},{0,14,6,3,128,12,2,15,4,11,9,10,8,5,35,13,7,1},{0,14,6,129,3,12,2,15,4,11,9,10,8,5,35,13,7,1},{0,14,6,131,132,3,130,12,137,2,15,4,11,9,10,8,5,35,13,134,138,7,136,135,133,1},{0,14,6,131,132,3,130,12,137,2,15,4,11,9,10,8,5,35,13,134,138,7,136,135,133,1},{0,14,6,131,132,3,130,12,137,2,15,4,11,9,10,8,5,35,13,134,138,7,136,135,133,1},{0,14,6,131,132,3,130,12,137,2,15,4,11,9,10,8,5,35,13,134,138,7,136,135,133,1},{0,14,6,131,132,3,130,12,137,2,15,4,11,9,10,8,5,35,13,134,138,7,136,135,133,1},{0,14,6,131,132,3,130,12,137,2,15,4,11,9,10,8,5,35,13,134,138,7,136,135,133,1},{0,14,6,131,132,3,130,12,137,2,15,4,11,9,10,8,5,35,13,134,138,7,136,135,133,1},{0,14,6,131,132,3,130,12,137,2,15,4,11,9,10,8,5,35,13,134,138,7,136,135,133,1},{0,14,6,131,132,3,130,12,137,2,15,4,11,9,10,8,5,35,13,134,138,7,136,135,133,1},{16,19,22,20,25,24,27,28,31,18,26,23,142,17,141,139,21,30,66,68,143,140,67,29},{16,19,22,20,25,24,27,28,31,18,26,23,142,17,141,139,21,30,66,68,143,140,67,29},{16,19,22,20,25,24,27,28,31,18,26,23,142,17,141,139,21,30,66,68,143,140,67,29},{16,19,22,20,25,24,27,28,31,18,26,23,142,17,141,139,21,30,66,68,143,140,67,29},{16,19,22,20,25,24,27,28,31,18,26,23,142,17,141,139,21,30,66,68,143,140,67,29},{0,14,6,144,42,47,32,3,50,12,2,53,15,4,11,9,10,8,5,35,40,13,7,44,124,60,1},{0,14,6,42,47,32,3,50,12,2,53,15,4,11,9,10,8,5,35,40,13,145,7,44,124,60,1},{0,14,6,42,47,32,3,50,146,12,2,53,15,4,11,9,10,8,5,35,40,13,7,44,124,60,1},{0,14,6,42,47,32,3,50,147,12,2,53,15,4,11,9,10,8,5,35,40,13,7,44,124,60,1},{148},{149},{0,14,6,42,47,32,3,12,2,53,15,4,11,9,10,8,5,35,40,13,7,44,124,60,1,150},{0,14,6,42,47,32,3,151,12,2,53,15,4,11,9,10,8,5,35,40,13,7,44,124,60,1},{152},{0,14,6,42,47,32,3,50,12,2,53,15,4,11,9,10,8,5,35,40,13,7,44,1,153},{154},{0,14,6,42,47,32,3,50,155,12,2,53,15,4,11,9,10,8,5,35,40,13,7,44,1},{156},{157},{158},{159},{160},{0,14,6,42,47,32,3,50,12,2,53,15,4,162,11,9,10,8,5,35,40,13,7,44,124,161,60,1},{0,14,6,42,47,32,3,50,12,2,53,15,4,162,11,9,10,8,5,35,40,13,7,44,124,161,60,1},{0,14,6,42,47,32,3,50,163,12,2,53,15,4,11,9,10,8,5,35,40,13,7,44,124,60,1},{0,14,6,42,47,32,3,50,12,2,53,15,4,11,9,10,8,5,35,40,13,7,164,44,124,60,1},{0,14,6,165,169,42,3,50,55,12,2,53,15,4,11,9,10,8,5,35,40,13,7,44,124,60,1},{0,14,6,165,42,3,50,12,166,2,53,15,4,11,9,10,8,5,35,40,13,7,44,124,60,1},{0,14,6,165,42,3,50,12,2,53,15,4,11,9,10,8,5,35,40,13,167,7,44,124,60,1},{168},{0,14,6,165,169,42,3,50,55,12,2,53,15,4,11,9,10,8,5,35,40,13,7,44,124,60,1},{170},{0,14,6,175,42,3,50,174,12,171,2,53,15,4,11,9,10,8,5,35,40,13,7,44,124,60,56,1},{0,14,6,42,3,50,173,12,171,2,53,15,4,11,9,10,8,5,35,40,13,7,44,124,60,56,1,172},{0,14,6,42,3,50,174,173,12,171,2,53,15,4,11,9,10,8,5,35,40,13,7,44,124,60,56,1},{0,14,6,175,42,3,50,174,12,171,2,53,15,4,11,9,10,8,5,35,40,13,7,44,124,60,56,1},{0,14,6,175,42,3,50,174,12,171,2,53,15,4,11,9,10,8,5,35,40,13,7,44,124,60,56,1},{0,14,6,42,3,50,174,12,171,2,53,15,4,11,9,10,8,5,35,40,178,13,7,176,44,124,60,56,1},{0,14,6,42,3,50,174,12,171,2,53,15,4,11,9,10,8,5,35,40,13,177,7,176,44,124,60,56,1},{0,14,6,42,3,50,174,12,171,2,53,15,4,11,9,10,8,5,35,40,178,13,7,176,44,124,60,56,1},{0,14,6,42,3,50,174,12,171,2,53,15,4,11,9,10,8,5,35,40,13,7,179,44,124,60,56,1},{0,14,6,42,3,50,12,171,2,53,15,4,11,9,10,8,5,35,40,13,7,180,44,124,60,56,1},{0,14,6,42,3,50,12,171,2,53,15,4,11,9,181,10,8,5,35,40,13,7,44,124,60,56,1},{0,14,6,42,3,50,182,12,171,2,53,15,4,11,9,10,8,5,35,40,13,7,124,60,56,1},{0,14,6,183,42,3,50,12,171,2,53,15,4,11,9,10,8,5,35,40,13,7,124,60,56,1},{0,14,6,42,3,50,12,171,2,53,15,4,11,9,10,8,5,35,40,13,184,7,124,60,56,1},{0,14,6,42,3,50,12,171,2,53,15,4,11,9,185,10,8,5,35,40,13,7,124,60,56,1},{186},{187},{188},{0,189,194,14,6,42,3,50,12,2,53,15,4,11,9,10,8,5,35,40,13,7,191,190,44,124,60,192,1},{0,189,194,14,6,42,3,50,12,2,53,15,4,11,9,10,8,5,35,40,13,7,191,190,44,124,60,192,1},{0,189,194,14,6,42,3,50,12,2,53,15,4,11,9,10,8,5,35,40,13,7,191,190,44,124,60,192,1},{0,189,194,14,6,42,3,50,12,2,53,15,4,11,9,10,8,5,35,40,13,7,191,190,44,124,60,192,1},{0,189,14,6,42,3,50,12,2,53,15,4,193,11,9,10,8,5,35,40,13,7,191,190,44,124,60,192,1},{0,189,194,14,6,42,3,50,12,2,53,15,4,11,9,10,8,5,35,40,13,7,191,190,44,124,60,192,1},{0,189,14,6,42,3,50,12,2,53,15,4,11,9,10,8,5,35,40,13,195,196,7,191,190,44,124,60,192,1},{0,189,14,6,42,3,50,12,2,53,15,4,11,9,10,8,5,35,40,13,196,195,7,191,190,44,124,60,192,1},{0,189,14,6,42,3,50,199,12,2,53,197,15,4,11,9,10,8,5,35,40,13,7,190,44,124,60,192,1},{0,189,14,6,42,3,50,12,2,53,197,15,4,11,9,198,10,8,5,35,40,13,7,191,190,44,124,60,192,1},{0,189,14,6,42,3,50,199,12,2,53,197,15,4,11,9,10,8,5,35,40,13,7,190,44,124,60,192,1},{0,14,6,42,3,50,199,12,2,53,197,15,4,11,9,10,8,5,35,40,13,200,7,190,44,124,60,192,1},{0,14,6,42,3,50,199,12,2,53,15,4,11,9,10,8,5,35,40,13,7,190,44,124,60,192,201,1},{202},{0,14,6,42,3,50,55,199,12,2,53,15,4,11,9,10,8,5,35,40,13,203,7,190,44,124,60,192,1},{0,14,6,42,3,50,55,199,12,204,2,53,15,4,11,9,10,8,5,35,40,13,7,44,124,60,192,1},{0,14,6,42,3,50,205,55,12,207,2,53,15,4,11,9,10,8,5,35,40,13,7,44,124,60,1},{0,14,6,42,3,50,205,55,12,2,53,15,4,11,9,10,8,5,35,40,13,7,206,44,124,60,192,1},{0,14,6,42,3,50,205,55,12,207,2,53,15,4,11,9,10,8,5,35,40,13,7,44,124,60,1},{208},{0,14,6,42,47,32,3,50,210,12,2,53,15,4,11,9,10,8,5,35,40,209,13,7,44,1},{0,14,6,42,47,32,3,50,210,12,2,53,15,4,11,9,10,8,5,35,40,209,13,7,44,1}];
nr_cliques=211;
