projet_m2_wvcp/projet_m2_wvcp/original_wvcp_dzn/zeroin.i.2.dzn
name="zeroin.i.2";
nr_vertices=211;
nr_edges=3541;
neighborhoods=[{1,2,3,4,5,6,7,8,9,10,11,12,13,14,15,32,35,40,42,44,46,47,50,53,55,56,58,59,60,69,70,71,72,73,74,75,76,77,79,81,84,87,89,90,91,98,100,105,106,107,108,109,116,119,120,121,123,124,125,126,127,128,129,130,131,132,133,134,135,136,137,138,144,145,146,147,150,151,153,155,161,162,163,164,165,166,167,169,171,172,173,174,175,176,177,178,179,180,181,182,183,184,185,189,190,191,192,193,194,195,196,197,198,199,200,201,203,204,205,206,207,209,210,83,82,80,78,68,67,66,65,64,63,62,61,143,142,141,140,139},{0,2,3,4,5,6,7,8,9,10,11,12,13,14,15,32,35,40,42,44,46,47,50,53,55,56,58,59,60,69,70,71,72,73,74,75,76,77,79,81,84,87,89,90,91,98,100,105,106,107,108,109,116,119,120,121,123,124,125,126,127,128,129,130,131,132,133,134,135,136,137,138,144,145,146,147,150,151,153,155,161,162,163,164,165,166,167,169,171,172,173,174,175,176,177,178,179,180,181,182,183,184,185,189,190,191,192,193,194,195,196,197,198,199,200,201,203,204,205,206,207,209,210,83,82,80,78,68,67,66,65,64,63,62,61,143,142,141,140,139},{0,1,3,4,5,6,7,8,9,10,11,12,13,14,15,32,35,40,42,44,46,47,50,53,55,56,58,59,60,69,70,71,72,73,74,75,76,77,79,81,84,87,89,90,91,98,100,105,106,107,108,109,116,119,120,121,123,124,125,126,127,128,129,130,131,132,133,134,135,136,137,138,144,145,146,147,150,151,153,155,161,162,163,164,165,166,167,169,171,172,173,174,175,176,177,178,179,180,181,182,183,184,185,189,190,191,192,193,194,195,196,197,198,199,200,201,203,204,205,206,207,209,210,83,82,80,78,68,67,66,65,64,63,62,61},{0,1,2,4,5,6,7,8,9,10,11,12,13,14,15,32,35,40,42,44,46,47,50,53,55,56,58,59,60,69,70,71,72,73,74,75,76,77,79,81,84,87,89,90,91,98,100,105,106,107,108,109,116,119,120,121,123,124,125,126,127,128,129,130,131,132,133,134,135,136,137,138,144,145,146,147,150,151,153,155,161,162,163,164,165,166,167,169,171,172,173,174,175,176,177,178,179,180,181,182,183,184,185,189,190,191,192,193,194,195,196,197,198,199,200,201,203,204,205,206,207,209,210},{0,1,2,3,5,6,7,8,9,10,11,12,13,14,15,32,35,40,42,44,46,47,50,53,55,56,58,59,60,69,70,71,72,73,74,75,76,77,79,81,84,87,89,90,91,98,100,105,106,107,108,109,116,119,120,121,123,124,125,126,127,128,129,130,131,132,133,134,135,136,137,138,144,145,146,147,150,151,153,155,161,162,163,164,165,166,167,169,171,172,173,174,175,176,177,178,179,180,181,182,183,184,185,189,190,191,192,193,194,195,196,197,198,199,200,201,203,204,205,206,207,209,210,61,143},{0,1,2,3,4,6,7,8,9,10,11,12,13,14,15,32,35,40,42,44,46,47,50,53,55,56,58,59,60,69,70,71,72,73,74,75,76,77,79,81,84,87,89,90,91,98,100,105,106,107,108,109,116,119,120,121,123,124,125,126,127,128,129,130,131,132,133,134,135,136,137,138,144,145,146,147,150,151,153,155,161,162,163,164,165,166,167,169,171,172,173,174,175,176,177,178,179,180,181,182,183,184,185,189,190,191,192,193,194,195,196,197,198,199,200,201,203,204,205,206,207,209,210,62,61,142,143},{0,1,2,3,4,5,7,8,9,10,11,12,13,14,15,32,35,40,42,44,46,47,50,53,55,56,58,59,60,69,70,71,72,73,74,75,76,77,79,81,84,87,89,90,91,98,100,105,106,107,108,109,116,119,120,121,123,124,125,126,127,128,129,130,131,132,133,134,135,136,137,138,144,145,146,147,150,151,153,155,161,162,163,164,165,166,167,169,171,172,173,174,175,176,177,178,179,180,181,182,183,184,185,189,190,191,192,193,194,195,196,197,198,199,200,201,203,204,205,206,207,209,210,63,62,61,141,142,143},{0,1,2,3,4,5,6,8,9,10,11,12,13,14,15,32,35,40,42,44,46,47,50,53,55,56,58,59,60,69,70,71,72,73,74,75,76,77,79,81,84,87,89,90,91,98,100,105,106,107,108,109,116,119,120,121,123,124,125,126,127,128,129,130,131,132,133,134,135,136,137,138,144,145,146,147,150,151,153,155,161,162,163,164,165,166,167,169,171,172,173,174,175,176,177,178,179,180,181,182,183,184,185,189,190,191,192,193,194,195,196,197,198,199,200,201,203,204,205,206,207,209,210,64,63,62,61,140,141,142,143},{0,1,2,3,4,5,6,7,9,10,11,12,13,14,15,32,35,40,42,44,46,47,50,53,55,56,58,59,60,69,70,71,72,73,74,75,76,77,79,81,84,87,89,90,91,98,100,105,106,107,108,109,116,119,120,121,123,124,125,126,127,128,129,130,131,132,133,134,135,136,137,138,144,145,146,147,150,151,153,155,161,162,163,164,165,166,167,169,171,172,173,174,175,176,177,178,179,180,181,182,183,184,185,189,190,191,192,193,194,195,196,197,198,199,200,201,203,204,205,206,207,209,210,65,64,63,62,61,139,140,141,142,143},{0,1,2,3,4,5,6,7,8,10,11,12,13,14,15,32,35,40,42,44,46,47,50,53,55,56,58,59,60,69,70,71,72,73,74,75,76,77,79,81,84,87,89,90,91,98,100,105,106,107,108,109,116,119,120,121,123,124,125,126,127,128,129,130,131,132,133,134,135,136,137,138,144,145,146,147,150,151,153,155,161,162,163,164,165,166,167,169,171,172,173,174,175,176,177,178,179,180,181,182,183,184,185,189,190,191,192,193,194,195,196,197,198,199,200,201,203,204,205,206,207,209,210,66,65,64,63,62,61,139,140,141,142,143},{0,1,2,3,4,5,6,7,8,9,11,12,13,14,15,32,35,40,42,44,46,47,50,53,55,56,58,59,60,69,70,71,72,73,74,75,76,77,79,81,84,87,89,90,91,98,100,105,106,107,108,109,116,119,120,121,123,124,125,126,127,128,129,130,131,132,133,134,135,136,137,138,144,145,146,147,150,151,153,155,161,162,163,164,165,166,167,169,171,172,173,174,175,176,177,178,179,180,181,182,183,184,185,189,190,191,192,193,194,195,196,197,198,199,200,201,203,204,205,206,207,209,210,68,67,66,65,64,63,62,61,83,82,80,78},{0,1,2,3,4,5,6,7,8,9,10,12,13,14,15,32,35,40,42,44,46,47,50,53,55,56,58,59,60,69,70,71,72,73,74,75,76,77,79,81,84,87,89,90,91,98,100,105,106,107,108,109,116,119,120,121,123,124,125,126,127,128,129,130,131,132,133,134,135,136,137,138,144,145,146,147,150,151,153,155,161,162,163,164,165,166,167,169,171,172,173,174,175,176,177,178,179,180,181,182,183,184,185,189,190,191,192,193,194,195,196,197,198,199,200,201,203,204,205,206,207,209,210,78,68,67,66,65,64,63,62,61,83,82,80},{0,1,2,3,4,5,6,7,8,9,10,11,13,14,15,32,35,40,42,44,46,47,50,53,55,56,58,59,60,69,70,71,72,73,74,75,76,77,79,81,84,87,89,90,91,98,100,105,106,107,108,109,116,119,120,121,123,124,125,126,127,128,129,130,131,132,133,134,135,136,137,138,144,145,146,147,150,151,153,155,161,162,163,164,165,166,167,169,171,172,173,174,175,176,177,178,179,180,181,182,183,184,185,189,190,191,192,193,194,195,196,197,198,199,200,201,203,204,205,206,207,209,210,80,78,68,67,66,65,64,63,62,61,83,82},{0,1,2,3,4,5,6,7,8,9,10,11,12,14,15,32,35,40,42,44,46,47,50,53,55,56,58,59,60,69,70,71,72,73,74,75,76,77,79,81,84,87,89,90,91,98,100,105,106,107,108,109,116,119,120,121,123,124,125,126,127,128,129,130,131,132,133,134,135,136,137,138,144,145,146,147,150,151,153,155,161,162,163,164,165,166,167,169,171,172,173,174,175,176,177,178,179,180,181,182,183,184,185,189,190,191,192,193,194,195,196,197,198,199,200,201,203,204,205,206,207,209,210,82,80,78,68,67,66,65,64,63,62,61,83},{0,1,2,3,4,5,6,7,8,9,10,11,12,13,15,32,35,40,42,44,46,47,50,53,55,56,58,59,60,69,70,71,72,73,74,75,76,77,79,81,84,87,89,90,91,98,100,105,106,107,108,109,116,119,120,121,123,124,125,126,127,128,129,130,131,132,133,134,135,136,137,138,144,145,146,147,150,151,153,155,161,162,163,164,165,166,167,169,171,172,173,174,175,176,177,178,179,180,181,182,183,184,185,189,190,191,192,193,194,195,196,197,198,199,200,201,203,204,205,206,207,209,210,83,82,80,78,68,67,66},{0,1,2,3,4,5,6,7,8,9,10,11,12,13,14,32,35,40,42,44,46,47,50,53,55,56,58,59,60,69,70,71,72,73,74,75,76,77,79,81,84,87,89,90,91,98,100,105,106,107,108,109,116,119,120,121,123,124,125,126,127,128,129,130,131,132,133,134,135,136,137,138,144,145,146,147,150,151,153,155,161,162,163,164,165,166,167,169,171,172,173,174,175,176,177,178,179,180,181,182,183,184,185,189,190,191,192,193,194,195,196,197,198,199,200,201,203,204,205,206,207,209,210,67,66,65,64,63,62,61,83,82,80,78,68,139,140,141,142,143},{17,18,19,20,21,22,23,24,25,26,27,28,29,30,31,61,62,63,64,65,66,67,68,78,80,82,83,139,140,141,142,143,46,84,81,79,77,76,75,74,73,72,71,70,69,91,90,89,87,100,50,98,47,35,32,105,44,42,53,40,108,107,106,59,58,210,209,126,125,124,123,60,121,120,119,138,137,136,135,134,133,132,131,130,129,128,127,147,146,145,144,163,162,161,164,56,207,206,205,204,203,55,201,200,199,198,197,196,195,194,193,192,191,190,189,180,179,178,177,176,175,174,173,172,171,185,184,183,182,181,151,150,155,153,169,167,166,165,116,109},{16,18,19,20,21,22,23,24,25,26,27,28,29,30,31,61,62,63,64,65,66,67,68,78,80,82,83,139,140,141,142,143},{16,17,19,20,21,22,23,24,25,26,27,28,29,30,31,61,62,63,64,65,66,67,68,78,80,82,83,139,140,141,142,143,69,138},{16,17,18,20,21,22,23,24,25,26,27,28,29,30,31,61,62,63,64,65,66,67,68,78,80,82,83,139,140,141,142,143,70,69,137,138},{16,17,18,19,21,22,23,24,25,26,27,28,29,30,31,61,62,63,64,65,66,67,68,78,80,82,83,139,140,141,142,143,71,70,69,136,137,138},{16,17,18,19,20,22,23,24,25,26,27,28,29,30,31,61,62,63,64,65,66,67,68,78,80,82,83,139,140,141,142,143,72,71,70,69,135,136,137,138},{16,17,18,19,20,21,23,24,25,26,27,28,29,30,31,61,62,63,64,65,66,67,68,78,80,82,83,139,140,141,142,143,73,72,71,70,69,134,135,136,137,138},{16,17,18,19,20,21,22,24,25,26,27,28,29,30,31,61,62,63,64,65,66,67,68,78,80,82,83,139,140,141,142,143,74,73,72,71,70,69,133,134,135,136,137,138},{16,17,18,19,20,21,22,23,25,26,27,28,29,30,31,61,62,63,64,65,66,67,68,78,80,82,83,139,140,141,142,143,75,74,73,72,71,70,69,132,133,134,135,136,137,138},{16,17,18,19,20,21,22,23,24,26,27,28,29,30,31,61,62,63,64,65,66,67,68,78,80,82,83,139,140,141,142,143,76,75,74,73,72,71,70,69,131,132,133,134,135,136,137,138},{16,17,18,19,20,21,22,23,24,25,27,28,29,30,31,61,62,63,64,65,66,67,68,78,80,82,83,139,140,141,142,143,100,98,47,35,32,46,105,44,42,53,40,108,107,106,59,58,210,209,126,125,124,123,60,121,120,119,131,132,133,134,135,136,137,138,130,147,146,145,144,163,162,161,164,56,207,206,205,204,203,55,201,200,199,198,197,196,195,194,193,192,191,190,189,180,179,178,177,176,175,174,173,172,171,185,184,183,182,181,151,150,155,153,169,167,166,165,116,50,109},{16,17,18,19,20,21,22,23,24,25,26,28,29,30,31,61,62,63,64,65,66,67,68,78,80,82,83,139,140,141,142,143,47,35,32,46,44,42,40,53},{16,17,18,19,20,21,22,23,24,25,26,27,29,30,31,61,62,63,64,65,66,67,68,78,80,82,83,139,140,141,142,143,47,35,32,46,44,42,40,53},{16,17,18,19,20,21,22,23,24,25,26,27,28,30,31,61,62,63,64,65,66,67,68,78,80,82,83,139,140,141,142,143,47,35,32,46,44,42,40,53},{16,17,18,19,20,21,22,23,24,25,26,27,28,29,31,61,62,63,64,65,66,67,68,78,80,82,83,139,140,141,142,143,47,35,32,46,44,42,40,53},{16,17,18,19,20,21,22,23,24,25,26,27,28,29,30,61,62,63,64,65,66,67,68,78,80,82,83,139,140,141,142,143,47,35,32,46,44,42,40,53},{0,1,2,3,4,5,6,7,8,9,10,11,12,13,14,15,16,26,27,28,29,30,31,100,50,98,47,35,46,105,44,42,53,108,107,106,59,58,210,209,126,125,124,123,60,121,120,119,147,146,145,144,163,162,161,164,151,150,40,155,153,116,109},{},{},{0,1,2,3,4,5,6,7,8,9,10,11,12,13,14,15,16,26,27,28,29,30,31,32,100,50,98,47,46,105,44,42,53,40,108,107,106,59,58,210,209,126,125,124,123,60,121,120,119,138,137,136,135,134,133,132,131,130,129,128,127,147,146,145,144,163,162,161,164,56,207,206,205,204,203,55,201,200,199,198,197,196,195,194,193,192,191,190,189,180,179,178,177,176,175,174,173,172,171,185,184,183,182,181,151,150,155,153,169,167,166,165,116,109},{},{},{},{},{0,1,2,3,4,5,6,7,8,9,10,11,12,13,14,15,16,26,27,28,29,30,31,32,35,105,44,42,53,50,47,108,107,106,59,58,210,209,126,125,124,123,60,121,120,119,147,146,145,144,163,162,161,164,56,207,206,205,204,203,55,201,200,199,198,197,196,195,194,193,192,191,190,189,180,179,178,177,176,175,174,173,172,171,185,184,183,182,181,151,150,155,153,169,167,166,165,116,109},{},{0,1,2,3,4,5,6,7,8,9,10,11,12,13,14,15,16,26,27,28,29,30,31,32,35,40,105,53,50,47,108,107,106,59,58,210,209,126,125,124,123,60,121,120,119,147,146,145,144,163,162,161,164,56,207,206,205,204,203,55,201,200,199,198,197,196,195,194,193,192,191,190,189,180,179,178,177,176,175,174,173,172,171,185,184,183,182,181,44,151,150,155,153,169,167,166,165,116,109},{},{0,1,2,3,4,5,6,7,8,9,10,11,12,13,14,15,16,26,27,28,29,30,31,32,35,40,42,105,53,50,47,108,107,106,59,58,210,209,126,125,124,123,60,121,120,119,147,146,145,144,163,162,161,164,56,207,206,205,204,203,55,201,200,199,198,197,196,195,194,193,192,191,190,189,180,179,178,177,176,175,174,173,172,171,181,151,150,155,153,169,167,166,165,116,109},{},{0,1,2,3,4,5,6,7,8,9,10,11,12,13,14,15,16,26,27,28,29,30,31,32,35,91,90,89,87,50,98,47},{0,1,2,3,4,5,6,7,8,9,10,11,12,13,14,15,16,26,27,28,29,30,31,32,35,40,42,44,46,100,50,98,105,108,107,106,59,58,210,209,126,125,124,123,60,121,120,119,147,146,145,144,163,162,161,164,191,190,189,151,150,53,155,153,116,109},{},{},{0,1,2,3,4,5,6,7,8,9,10,11,12,13,14,15,16,26,32,35,40,42,44,46,47,100,98,105,53,108,107,106,59,58,210,209,126,125,124,123,60,121,120,119,147,146,145,144,163,162,161,164,56,207,206,205,204,203,55,201,200,199,198,197,196,195,194,193,192,191,190,189,180,179,178,177,176,175,174,173,172,171,185,184,183,182,181,155,153,169,167,166,165,116,109},{},{},{0,1,2,3,4,5,6,7,8,9,10,11,12,13,14,15,16,26,27,28,29,30,31,32,35,40,42,44,47,50,105,108,107,106,59,58,210,209,126,125,124,123,60,121,120,119,147,146,145,144,163,162,161,164,56,207,206,205,204,203,55,201,200,199,198,197,196,195,194,193,192,191,190,189,180,179,178,177,176,175,174,173,172,171,185,184,183,182,181,151,150,155,153,169,167,166,165,116,109},{},{0,1,2,3,4,5,6,7,8,9,10,11,12,13,14,15,16,26,35,40,42,44,50,53,56,207,206,205,204,203,190,199,192,60,124,169,165},{0,1,2,3,4,5,6,7,8,9,10,11,12,13,14,15,16,26,35,40,42,44,50,53,55,124,60,180,179,178,177,176,175,174,173,172,171,185,184,183,182,181},{},{0,1,2,3,4,5,6,7,8,9,10,11,12,13,14,15,16,26,32,35,40,42,44,47,50,53,59,121,120,119},{0,1,2,3,4,5,6,7,8,9,10,11,12,13,14,15,16,26,32,35,40,42,44,47,50,53,58,123,60,121,120,119},{0,1,2,3,4,5,6,7,8,9,10,11,12,13,14,15,16,26,32,35,40,42,44,47,50,53,55,56,59,126,125,124,123,147,146,145,144,163,162,161,164,207,206,205,204,203,201,200,199,198,197,196,195,194,193,192,191,190,189,180,179,178,177,176,175,174,173,172,171,185,184,183,182,181,151,150,169,167,166,165},{0,1,2,4,5,6,7,8,9,10,11,12,13,15,16,17,18,19,20,21,22,23,24,25,26,27,28,29,30,31},{0,1,2,5,6,7,8,9,10,11,12,13,15,16,17,18,19,20,21,22,23,24,25,26,27,28,29,30,31},{0,1,2,6,7,8,9,10,11,12,13,15,16,17,18,19,20,21,22,23,24,25,26,27,28,29,30,31},{0,1,2,7,8,9,10,11,12,13,15,16,17,18,19,20,21,22,23,24,25,26,27,28,29,30,31},{0,1,2,8,9,10,11,12,13,15,16,17,18,19,20,21,22,23,24,25,26,27,28,29,30,31},{0,1,2,9,10,11,12,13,14,15,16,17,18,19,20,21,22,23,24,25,26,27,28,29,30,31,83,82,80,78,68,67,143,142,141,140,139},{0,1,2,10,11,12,13,14,15,16,17,18,19,20,21,22,23,24,25,26,27,28,29,30,31,66,83,82,80,78,68,143,142,141,140,139},{0,1,2,10,11,12,13,14,15,16,17,18,19,20,21,22,23,24,25,26,27,28,29,30,31,66,67,83,82,80,78,143,142,141,140,139},{0,1,2,3,4,5,6,7,8,9,10,11,12,13,14,15,16,18,19,20,21,22,23,24,25},{0,1,2,3,4,5,6,7,8,9,10,11,12,13,14,15,16,19,20,21,22,23,24,25},{0,1,2,3,4,5,6,7,8,9,10,11,12,13,14,15,16,20,21,22,23,24,25},{0,1,2,3,4,5,6,7,8,9,10,11,12,13,14,15,16,21,22,23,24,25},{0,1,2,3,4,5,6,7,8,9,10,11,12,13,14,15,16,22,23,24,25},{0,1,2,3,4,5,6,7,8,9,10,11,12,13,14,15,16,23,24,25},{0,1,2,3,4,5,6,7,8,9,10,11,12,13,14,15,16,24,25},{0,1,2,3,4,5,6,7,8,9,10,11,12,13,14,15,16,25},{0,1,2,3,4,5,6,7,8,9,10,11,12,13,14,15,16},{0,1,2,10,11,12,13,14,15,16,17,18,19,20,21,22,23,24,25,26,27,28,29,30,31,66,67,68,83,82,80},{0,1,2,3,4,5,6,7,8,9,10,11,12,13,14,15,16},{0,1,2,10,11,12,13,14,15,16,17,18,19,20,21,22,23,24,25,26,27,28,29,30,31,66,67,68,78,83,82},{0,1,2,3,4,5,6,7,8,9,10,11,12,13,14,15,16},{0,1,2,10,11,12,13,14,15,16,17,18,19,20,21,22,23,24,25,26,27,28,29,30,31,66,67,68,78,80,83},{0,1,2,10,11,12,13,14,15,16,17,18,19,20,21,22,23,24,25,26,27,28,29,30,31,66,67,68,78,80,82},{0,1,2,3,4,5,6,7,8,9,10,11,12,13,14,15,16},{},{},{0,1,2,3,4,5,6,7,8,9,10,11,12,13,14,15,16,46},{},{0,1,2,3,4,5,6,7,8,9,10,11,12,13,14,15,16,46,90},{0,1,2,3,4,5,6,7,8,9,10,11,12,13,14,15,16,46,89},{0,1,2,3,4,5,6,7,8,9,10,11,12,13,14,15,16,46},{},{},{},{},{},{},{0,1,2,3,4,5,6,7,8,9,10,11,12,13,14,15,16,26,32,35,46,47,50},{},{0,1,2,3,4,5,6,7,8,9,10,11,12,13,14,15,16,26,32,35,47,50},{},{},{},{},{0,1,2,3,4,5,6,7,8,9,10,11,12,13,14,15,16,26,32,35,40,42,44,47,50,53},{0,1,2,3,4,5,6,7,8,9,10,11,12,13,14,15,16,26,32,35,40,42,44,47,50,53,107},{0,1,2,3,4,5,6,7,8,9,10,11,12,13,14,15,16,26,32,35,40,42,44,47,50,53,106},{0,1,2,3,4,5,6,7,8,9,10,11,12,13,14,15,16,26,32,35,40,42,44,47,50,53},{0,1,2,3,4,5,6,7,8,9,10,11,12,13,14,15,16,26,32,35,40,42,44,47,50,53,116},{},{},{},{},{},{},{0,1,2,3,4,5,6,7,8,9,10,11,12,13,14,15,16,26,32,35,40,42,44,47,50,53,109},{},{},{0,1,2,3,4,5,6,7,8,9,10,11,12,13,14,15,16,26,32,35,40,42,44,47,50,53,58,59,120},{0,1,2,3,4,5,6,7,8,9,10,11,12,13,14,15,16,26,32,35,40,42,44,47,50,53,58,59,119},{0,1,2,3,4,5,6,7,8,9,10,11,12,13,14,15,16,26,32,35,40,42,44,47,50,53,58,59},{},{0,1,2,3,4,5,6,7,8,9,10,11,12,13,14,15,16,26,32,35,40,42,44,47,50,53,59,60},{0,1,2,3,4,5,6,7,8,9,10,11,12,13,14,15,16,26,32,35,40,42,44,47,50,53,55,56,60,126,125,147,146,145,144,163,162,161,164,207,206,205,204,203,201,200,199,198,197,196,195,194,193,192,191,190,189,180,179,178,177,176,175,174,173,172,171,185,184,183,182,181,151,150,169,167,166,165},{0,1,2,3,4,5,6,7,8,9,10,11,12,13,14,15,16,26,32,35,40,42,44,47,50,53,60,124},{0,1,2,3,4,5,6,7,8,9,10,11,12,13,14,15,16,26,32,35,40,42,44,47,50,53,60,124},{0,1,2,3,4,5,6,7,8,9,10,11,12,13,14,15,16,35},{0,1,2,3,4,5,6,7,8,9,10,11,12,13,14,15,16,35},{0,1,2,3,4,5,6,7,8,9,10,11,12,13,14,15,16,35},{0,1,2,3,4,5,6,7,8,9,10,11,12,13,14,15,16,26,35,138,137,136,135,134,133,132,131},{0,1,2,3,4,5,6,7,8,9,10,11,12,13,14,15,16,25,26,35,130,138,137,136,135,134,133,132},{0,1,2,3,4,5,6,7,8,9,10,11,12,13,14,15,16,24,25,26,35,130,131,138,137,136,135,134,133},{0,1,2,3,4,5,6,7,8,9,10,11,12,13,14,15,16,23,24,25,26,35,130,131,132,138,137,136,135,134},{0,1,2,3,4,5,6,7,8,9,10,11,12,13,14,15,16,22,23,24,25,26,35,130,131,132,133,138,137,136,135},{0,1,2,3,4,5,6,7,8,9,10,11,12,13,14,15,16,21,22,23,24,25,26,35,130,131,132,133,134,138,137,136},{0,1,2,3,4,5,6,7,8,9,10,11,12,13,14,15,16,20,21,22,23,24,25,26,35,130,131,132,133,134,135,138,137},{0,1,2,3,4,5,6,7,8,9,10,11,12,13,14,15,16,19,20,21,22,23,24,25,26,35,130,131,132,133,134,135,136,138},{0,1,2,3,4,5,6,7,8,9,10,11,12,13,14,15,16,18,19,20,21,22,23,24,25,26,35,130,131,132,133,134,135,136,137},{0,1,8,9,15,16,17,18,19,20,21,22,23,24,25,26,27,28,29,30,31,66,67,68,143,142,141,140},{0,1,7,8,9,15,16,17,18,19,20,21,22,23,24,25,26,27,28,29,30,31,66,67,68,139,143,142,141},{0,1,6,7,8,9,15,16,17,18,19,20,21,22,23,24,25,26,27,28,29,30,31,66,67,68,139,140,143,142},{0,1,5,6,7,8,9,15,16,17,18,19,20,21,22,23,24,25,26,27,28,29,30,31,66,67,68,139,140,141,143},{0,1,4,5,6,7,8,9,15,16,17,18,19,20,21,22,23,24,25,26,27,28,29,30,31,66,67,68,139,140,141,142},{0,1,2,3,4,5,6,7,8,9,10,11,12,13,14,15,16,26,32,35,40,42,44,47,50,53,60,124},{0,1,2,3,4,5,6,7,8,9,10,11,12,13,14,15,16,26,32,35,40,42,44,47,50,53,60,124},{0,1,2,3,4,5,6,7,8,9,10,11,12,13,14,15,16,26,32,35,40,42,44,47,50,53,60,124},{0,1,2,3,4,5,6,7,8,9,10,11,12,13,14,15,16,26,32,35,40,42,44,47,50,53,60,124},{},{},{0,1,2,3,4,5,6,7,8,9,10,11,12,13,14,15,16,26,32,35,40,42,44,47,53,60,124},{0,1,2,3,4,5,6,7,8,9,10,11,12,13,14,15,16,26,32,35,40,42,44,47,53,60,124},{},{0,1,2,3,4,5,6,7,8,9,10,11,12,13,14,15,16,26,32,35,40,42,44,47,50,53},{},{0,1,2,3,4,5,6,7,8,9,10,11,12,13,14,15,16,26,32,35,40,42,44,47,50,53},{},{},{},{},{},{0,1,2,3,4,5,6,7,8,9,10,11,12,13,14,15,16,26,32,35,40,42,44,47,50,53,60,124,162},{0,1,2,3,4,5,6,7,8,9,10,11,12,13,14,15,16,26,32,35,40,42,44,47,50,53,60,124,161},{0,1,2,3,4,5,6,7,8,9,10,11,12,13,14,15,16,26,32,35,40,42,44,47,50,53,60,124},{0,1,2,3,4,5,6,7,8,9,10,11,12,13,14,15,16,26,32,35,40,42,44,47,50,53,60,124},{0,1,2,3,4,5,6,7,8,9,10,11,12,13,14,15,16,26,35,40,42,44,50,53,55,60,124,169,167,166},{0,1,2,3,4,5,6,7,8,9,10,11,12,13,14,15,16,26,35,40,42,44,50,53,60,124,165},{0,1,2,3,4,5,6,7,8,9,10,11,12,13,14,15,16,26,35,40,42,44,50,53,60,124,165},{},{0,1,2,3,4,5,6,7,8,9,10,11,12,13,14,15,16,26,35,40,42,44,50,53,55,60,124,165},{},{0,1,2,3,4,5,6,7,8,9,10,11,12,13,14,15,16,26,35,40,42,44,50,53,56,60,124,180,179,178,177,176,175,174,173,172,185,184,183,182,181},{0,1,2,3,4,5,6,7,8,9,10,11,12,13,14,15,16,26,35,40,42,44,50,53,56,60,124,171,173},{0,1,2,3,4,5,6,7,8,9,10,11,12,13,14,15,16,26,35,40,42,44,50,53,56,60,124,171,172,174},{0,1,2,3,4,5,6,7,8,9,10,11,12,13,14,15,16,26,35,40,42,44,50,53,56,60,124,171,173,179,178,177,176,175},{0,1,2,3,4,5,6,7,8,9,10,11,12,13,14,15,16,26,35,40,42,44,50,53,56,60,124,171,174},{0,1,2,3,4,5,6,7,8,9,10,11,12,13,14,15,16,26,35,40,42,44,50,53,56,60,124,171,174,178,177},{0,1,2,3,4,5,6,7,8,9,10,11,12,13,14,15,16,26,35,40,42,44,50,53,56,60,124,171,174,176},{0,1,2,3,4,5,6,7,8,9,10,11,12,13,14,15,16,26,35,40,42,44,50,53,56,60,124,171,174,176},{0,1,2,3,4,5,6,7,8,9,10,11,12,13,14,15,16,26,35,40,42,44,50,53,56,60,124,171,174},{0,1,2,3,4,5,6,7,8,9,10,11,12,13,14,15,16,26,35,40,42,44,50,53,56,60,124,171},{0,1,2,3,4,5,6,7,8,9,10,11,12,13,14,15,16,26,35,40,42,44,50,53,56,60,124,171},{0,1,2,3,4,5,6,7,8,9,10,11,12,13,14,15,16,26,35,40,42,50,53,56,60,124,171},{0,1,2,3,4,5,6,7,8,9,10,11,12,13,14,15,16,26,35,40,42,50,53,56,60,124,171},{0,1,2,3,4,5,6,7,8,9,10,11,12,13,14,15,16,26,35,40,42,50,53,56,60,124,171},{0,1,2,3,4,5,6,7,8,9,10,11,12,13,14,15,16,26,35,40,42,50,53,56,60,124,171},{},{},{},{0,1,2,3,4,5,6,7,8,9,10,11,12,13,14,15,16,26,35,40,42,44,47,50,53,60,124,199,198,197,196,195,194,193,192,191,190},{0,1,2,3,4,5,6,7,8,9,10,11,12,13,14,15,16,26,35,40,42,44,47,50,53,55,60,124,189,203,201,200,199,198,197,196,195,194,193,192,191},{0,1,2,3,4,5,6,7,8,9,10,11,12,13,14,15,16,26,35,40,42,44,47,50,53,60,124,189,190,198,197,196,195,194,193,192},{0,1,2,3,4,5,6,7,8,9,10,11,12,13,14,15,16,26,35,40,42,44,50,53,55,60,124,189,190,191,206,205,204,203,201,200,199,198,197,196,195,194,193},{0,1,2,3,4,5,6,7,8,9,10,11,12,13,14,15,16,26,35,40,42,44,50,53,60,124,189,190,191,192},{0,1,2,3,4,5,6,7,8,9,10,11,12,13,14,15,16,26,35,40,42,44,50,53,60,124,189,190,191,192},{0,1,2,3,4,5,6,7,8,9,10,11,12,13,14,15,16,26,35,40,42,44,50,53,60,124,189,190,191,192,196},{0,1,2,3,4,5,6,7,8,9,10,11,12,13,14,15,16,26,35,40,42,44,50,53,60,124,189,190,191,192,195},{0,1,2,3,4,5,6,7,8,9,10,11,12,13,14,15,16,26,35,40,42,44,50,53,60,124,189,190,191,192,200,199,198},{0,1,2,3,4,5,6,7,8,9,10,11,12,13,14,15,16,26,35,40,42,44,50,53,60,124,189,190,191,192,197},{0,1,2,3,4,5,6,7,8,9,10,11,12,13,14,15,16,26,35,40,42,44,50,53,55,60,124,189,190,192,197,204,203,201,200},{0,1,2,3,4,5,6,7,8,9,10,11,12,13,14,15,16,26,35,40,42,44,50,53,60,124,190,192,197,199},{0,1,2,3,4,5,6,7,8,9,10,11,12,13,14,15,16,26,35,40,42,44,50,53,60,124,190,192,199},{},{0,1,2,3,4,5,6,7,8,9,10,11,12,13,14,15,16,26,35,40,42,44,50,53,55,60,124,190,192,199},{0,1,2,3,4,5,6,7,8,9,10,11,12,13,14,15,16,26,35,40,42,44,50,53,55,60,124,192,199},{0,1,2,3,4,5,6,7,8,9,10,11,12,13,14,15,16,26,35,40,42,44,50,53,55,60,124,192,207,206},{0,1,2,3,4,5,6,7,8,9,10,11,12,13,14,15,16,26,35,40,42,44,50,53,55,60,124,192,205},{0,1,2,3,4,5,6,7,8,9,10,11,12,13,14,15,16,26,35,40,42,44,50,53,55,60,124,205},{},{0,1,2,3,4,5,6,7,8,9,10,11,12,13,14,15,16,26,32,35,40,42,44,47,50,53,210},{0,1,2,3,4,5,6,7,8,9,10,11,12,13,14,15,16,26,32,35,40,42,44,47,50,53,209}];
weights=[19,1,12,16,11,9,18,5,9,10,9,10,13,8,18,11,18,6,11,18,14,5,16,8,13,13,8,12,12,1,5,12,17,17,5,9,3,3,10,8,9,18,17,2,3,16,12,17,2,1,16,13,2,12,1,15,2,5,7,13,2,8,5,19,5,6,5,4,5,14,12,14,13,6,12,12,2,5,10,1,2,6,13,3,17,10,14,15,11,1,8,13,9,10,9,10,15,10,11,1,4,3,11,13,5,3,6,7,4,15,4,2,1,13,5,14,19,15,9,10,16,13,19,2,3,5,8,18,14,18,15,18,17,3,8,3,5,13,6,6,5,6,7,5,18,8,15,14,4,1,1,16,14,1,14,16,2,2,11,16,17,3,11,14,5,18,13,7,9,18,12,13,1,15,15,18,4,7,9,4,5,10,16,18,7,10,11,8,8,19,4,5,2,11,19,7,7,12,10,15,8,2,5,8,13,16,4,13,4,9,16];
